1, 19, 18, 30, 29, 28, 27, 21, 22, 53, 52, 15, 1
1, 36, 31, 32, 24, 37, 47, 46, 45, 44, 25, 23, 26, 17, 1
1, 20, 38, 40, 41, 49, 48, 50, 51, 43, 42, 39, 35, 34, 33, 1
1, 8, 13, 10, 11, 12, 9, 5, 6, 4, 7, 3, 2, 16, 14, 1
